instances/knapsack/discrete_knapsack_uncertainty/knapsack_120_2.lp
\ Model knapsack_120_2
\ LP format - for model browsing. Use MPS format to capture full model detail.
\ Signature: 0x89f048c0c90eaa9
Minimize
  - 100 x[0] - 20 x[1] - 78 x[2] - 82 x[3] - 99 x[4] - 3 x[5] - 55 x[6]
   - 49 x[7] - 88 x[8] - 68 x[9] - 9 x[10] - 93 x[11] - 49 x[12] - 52 x[13]
   - 85 x[14] - 2 x[15] - 44 x[16] - 64 x[17] - 72 x[18] - 23 x[19]
   - 31 x[20] - 29 x[21] - 66 x[22] - 50 x[23] - 39 x[24] - 24 x[25]
   - 10 x[26] - 9 x[27] - 40 x[28] - 50 x[29] - 79 x[30] - 14 x[31]
   - 54 x[32] - 65 x[33] - 65 x[34] - 15 x[35] - 19 x[36] - 65 x[37]
   - 28 x[38] - 61 x[39] - 90 x[40] - 75 x[41] - 39 x[42] - 45 x[43]
   - 92 x[44] - 89 x[45] - 46 x[46] - 34 x[47] - 2 x[48] - 43 x[49]
   - 77 x[50] - 28 x[51] - 5 x[52] - 3 x[53] - 26 x[54] - 16 x[55]
   - 76 x[56] - 54 x[57] - 42 x[58] - 13 x[59] - 46 x[60] - 28 x[61]
   - 35 x[62] - 31 x[63] - 52 x[64] - 39 x[65] - 67 x[66] - 75 x[67]
   - 18 x[68] - 95 x[69] - 43 x[70] - 17 x[71] - 15 x[72] - 83 x[73]
   - 76 x[74] - 68 x[75] - 92 x[76] - 83 x[77] - 78 x[78] - 97 x[79]
   - 33 x[80] - 68 x[81] - 27 x[82] - 72 x[83] - 47 x[84] - 58 x[85]
   - 36 x[86] - 9 x[87] - 38 x[88] - 96 x[89] - 60 x[90] - 31 x[91]
   - 3 x[92] - 98 x[93] - 98 x[94] - 8 x[95] - 83 x[96] - 6 x[97]
   - 26 x[98] - 58 x[99] - 50 x[100] - 23 x[101] - 24 x[102] - 7 x[103]
   - 37 x[104] - 53 x[105] - 4 x[106] - 94 x[107] - 76 x[108] - 6 x[109]
   - 39 x[110] - 88 x[111] - 63 x[112] - 77 x[113] - 60 x[114] - 7 x[115]
   - 5 x[116] - 87 x[117] - 88 x[118] - 53 x[119]
Subject To
 primal_upper: 87 x[0] + 72 x[1] + 94 x[2] + 47 x[3] + 56 x[4] + 13 x[5]
   + 37 x[6] + 23 x[7] + x[8] + 2 x[9] + 99 x[10] + 91 x[11] + 80 x[12]
   + 28 x[13] + 12 x[14] + 44 x[15] + 13 x[16] + 16 x[17] + 21 x[18]
   + 42 x[19] + 77 x[20] + 43 x[21] + 40 x[22] + 38 x[23] + 80 x[24]
   + 32 x[25] + 62 x[26] + 15 x[27] + 97 x[28] + 91 x[29] + 21 x[30]
   + 3 x[31] + 59 x[32] + 49 x[33] + 96 x[34] + 37 x[35] + 68 x[36]
   + 28 x[37] + 52 x[38] + 78 x[39] + 79 x[40] + 37 x[41] + 50 x[42]
   + 29 x[43] + 11 x[44] + 22 x[45] + 53 x[46] + 9 x[47] + 35 x[48]
   + 72 x[49] + 90 x[50] + 40 x[51] + 65 x[52] + 92 x[53] + 32 x[54]
   + 75 x[55] + 21 x[56] + 94 x[57] + 56 x[58] + 62 x[59] + 28 x[60]
   + 34 x[61] + 47 x[62] + 78 x[63] + 71 x[64] + 72 x[65] + 4 x[66]
   + 78 x[67] + 84 x[68] + 73 x[69] + 21 x[70] + 93 x[71] + 30 x[72]
   + 55 x[73] + 71 x[74] + 72 x[75] + 54 x[76] + 79 x[77] + 12 x[78]
   + 94 x[79] + 77 x[80] + 33 x[81] + 62 x[82] + 5 x[83] + x[84] + 37 x[85]
   + 75 x[86] + 24 x[87] + 54 x[88] + 71 x[89] + 72 x[90] + 84 x[91]
   + 32 x[92] + 7 x[93] + 56 x[94] + 57 x[95] + 61 x[96] + 16 x[97]
   + 32 x[98] + 52 x[99] + 41 x[100] + 60 x[101] + 50 x[102] + 44 x[103]
   + x[104] + 30 x[105] + 11 x[106] + 70 x[107] + 50 x[108] + 73 x[109]
   + 34 x[110] + 91 x[111] + 13 x[112] + 89 x[113] + 93 x[114] + 82 x[115]
   + 87 x[116] + 65 x[117] + 21 x[118] + 96 x[119] + 8.7 r[0] + 7.2 r[1]
   + 9.4 r[2] + 4.7 r[3] + 5.6 r[4] + 1.3 r[5] + 3.7 r[6] + 2.3 r[7]
   + 0.1 r[8] + 0.2 r[9] + 9.9 r[10] + 9.1 r[11] + 8 r[12] + 2.8 r[13]
   + 1.2 r[14] + 4.4 r[15] + 1.3 r[16] + 1.6 r[17] + 2.1 r[18] + 4.2 r[19]
   + 7.7 r[20] + 4.3 r[21] + 4 r[22] + 3.8 r[23] + 8 r[24] + 3.2 r[25]
   + 6.2 r[26] + 1.5 r[27] + 9.7 r[28] + 9.1 r[29] + 2.1 r[30] + 0.3 r[31]
   + 5.9 r[32] + 4.9 r[33] + 9.6 r[34] + 3.7 r[35] + 6.8 r[36] + 2.8 r[37]
   + 5.2 r[38] + 7.8 r[39] + 7.9 r[40] + 3.7 r[41] + 5 r[42] + 2.9 r[43]
   + 1.1 r[44] + 2.2 r[45] + 5.3 r[46] + 0.9 r[47] + 3.5 r[48] + 7.2 r[49]
   + 9 r[50] + 4 r[51] + 6.5 r[52] + 9.2 r[53] + 3.2 r[54] + 7.5 r[55]
   + 2.1 r[56] + 9.4 r[57] + 5.6 r[58] + 6.2 r[59] + 2.8 r[60] + 3.4 r[61]
   + 4.7 r[62] + 7.8 r[63] + 7.1 r[64] + 7.2 r[65] + 0.4 r[66] + 7.8 r[67]
   + 8.4 r[68] + 7.3 r[69] + 2.1 r[70] + 9.3 r[71] + 3 r[72] + 5.5 r[73]
   + 7.1 r[74] + 7.2 r[75] + 5.4 r[76] + 7.9 r[77] + 1.2 r[78] + 9.4 r[79]
   + 7.7 r[80] + 3.3 r[81] + 6.2 r[82] + 0.5 r[83] + 0.1 r[84] + 3.7 r[85]
   + 7.5 r[86] + 2.4 r[87] + 5.4 r[88] + 7.1 r[89] + 7.2 r[90] + 8.4 r[91]
   + 3.2 r[92] + 0.7 r[93] + 5.6 r[94] + 5.7 r[95] + 6.1 r[96] + 1.6 r[97]
   + 3.2 r[98] + 5.2 r[99] + 4.1 r[100] + 6 r[101] + 5 r[102] + 4.4 r[103]
   + 0.1 r[104] + 3 r[105] + 1.1 r[106] + 7 r[107] + 5 r[108] + 7.3 r[109]
   + 3.4 r[110] + 9.1 r[111] + 1.3 r[112] + 8.9 r[113] + 9.3 r[114]
   + 8.2 r[115] + 8.7 r[116] + 6.5 r[117] + 2.1 r[118] + 9.6 r[119] <= 583
 primal_lower: 4.514504477827143 x[0] + 3.196663705039053 x[1]
   + 1.901927271692738 x[2] + 0.7165992245594145 x[3]
   + 4.204840362922147 x[4] + 3.979848576731461 x[5]
   + 3.286981021328764 x[6] + 2.569577613218208 x[7]
   + 2.007779435561063 x[8] + 1.28899620048438 x[9]
   + 2.753932268952762 x[10] + 4.404218469652735 x[11]
   + 3.827268066068199 x[12] + 2.324000242490853 x[13]
   + 2.370137196704734 x[14] + 3.962472822428472 x[15]
   + 1.147953718041997 x[16] + 2.006299551481349 x[17]
   + 2.237246876473677 x[18] + 3.704573898737272 x[19]
   + 0.8680922551928553 x[20] + 1.630694814154529 x[21]
   + 0.254444674158153 x[22] + 1.899646506362921 x[23]
   + 3.781273085983236 x[24] + 3.709425696617647 x[25]
   + 3.324383211650681 x[26] + 3.83879221572254 x[27]
   + 0.4738473038202456 x[28] + 0.6994630566609743 x[29]
   + 3.331365811694561 x[30] + 4.060834841179587 x[31]
   + 0.5012828695353208 x[32] + 4.23454959377207 x[33]
   + 4.435822579674578 x[34] + 0.1843233657648944 x[35]
   + 0.6075107162665654 x[36] + 4.005294555583254 x[37]
   + 2.856704853558319 x[38] + 1.338910421080082 x[39]
   + 1.188846697845533 x[40] + 0.2129301897041316 x[41]
   + 1.055990110489512 x[42] + 1.4448179283441 x[43]
   + 1.949732239092381 x[44] + 3.026622842840164 x[45]
   + 2.288094631623996 x[46] + 3.529232660925843 x[47]
   + 4.536141590448928 x[48] + 0.0488617546548557 x[49]
   + 1.349695405055964 x[50] + 3.573755871302176 x[51]
   + 3.3920518540043 x[52] + 2.399386011754266 x[53]
   + 4.371393379763646 x[54] + 3.642343015205476 x[55]
   + 1.124057888846716 x[56] + 1.032898508002248 x[57]
   + 4.186242859987219 x[58] + 4.202495475686764 x[59]
   + 1.839594203449182 x[60] + 0.8989112363708851 x[61]
   + 4.304173485785498 x[62] + 4.212017590193367 x[63]
   + 2.942343856910854 x[64] + 0.2401265967723777 x[65]
   + 0.3034582261741308 x[66] + 0.2613673711793602 x[67]
   + 1.91808978712105 x[68] + 3.906503414418089 x[69]
   + 0.6816473613767088 x[70] + 1.178376486458143 x[71]
   + 1.81094561274986 x[72] + 3.435083217983035 x[73]
   + 1.137546665081447 x[74] + 3.131189739807406 x[75]
   + 1.273216494156159 x[76] + 3.178358879101422 x[77]
   + 3.406183867497951 x[78] + 2.790722954755732 x[79]
   + 2.957683814629944 x[80] + 1.813882115323659 x[81]
   + 4.321219830409051 x[82] + 0.9136044051647855 x[83]
   + 3.032810815281707 x[84] + 3.076055276571416 x[85]
   + 1.086881454316996 x[86] + 1.768202841359574 x[87]
   + 0.2820439377826399 x[88] + 2.400200390543931 x[89]
   + 1.318126805898077 x[90] + 4.393922630203971 x[91]
   + 0.2795466643082913 x[92] + 1.080699206975504 x[93]
   + 4.008907877736428 x[94] + 1.908815040581682 x[95]
   + 1.836509677494874 x[96] + 1.442409610755351 x[97]
   + 3.126598360400662 x[98] + 3.172540561670573 x[99]
   + 4.439026782257206 x[100] + 0.2703576981234251 x[101]
   + 1.981229546598362 x[102] + 3.284368561605301 x[103]
   + 0.423275111362995 x[104] + 0.3837155922644855 x[105]
   + 0.0416227759900255 x[106] + 4.179782071042866 x[107]
   + 3.656748148480375 x[108] + 0.737176851952249 x[109]
   + 0.2208914356734497 x[110] + 1.019098787493624 x[111]
   + 0.6385172175684924 x[112] + 2.004257629898124 x[113]
   + 2.557622838598008 x[114] + 0.7126625967638032 x[115]
   + 2.972565507683508 x[116] + 0.8855283146453662 x[117]
   + 3.859917245425289 x[118] + 3.400732502644013 x[119] + u[0] + 97 u[1]
   + 79 u[2] + 36 u[3] + 29 u[4] + 11 u[5] + 46 u[6] + 21 u[7] + 86 u[8]
   + 31 u[9] + 9 u[10] + 92 u[11] + 57 u[12] + 57 u[13] + 42 u[14]
   + 62 u[15] + 58 u[16] + 17 u[17] + 78 u[18] + 43 u[19] + 38 u[20]
   + 9 u[21] + 65 u[22] + 32 u[23] + 66 u[24] + 9 u[25] + 15 u[26]
   + 9 u[27] + 87 u[28] + 100 u[29] + 35 u[30] + 65 u[31] + 5 u[32]
   + 50 u[33] + 65 u[34] + 70 u[35] + 89 u[36] + 58 u[37] + 45 u[38]
   + 80 u[39] + 72 u[40] + 11 u[41] + 31 u[42] + 55 u[43] + 56 u[44]
   + 56 u[45] + 43 u[46] + 3 u[47] + 44 u[48] + 13 u[49] + 20 u[50]
   + 21 u[51] + 30 u[52] + 77 u[53] + 38 u[54] + 37 u[55] + 58 u[56]
   + 96 u[57] + 21 u[58] + 31 u[59] + 62 u[60] + 52 u[61] + 45 u[62]
   + 8 u[63] + 13 u[64] + 17 u[65] + 62 u[66] + 76 u[67] + 73 u[68]
   + 75 u[69] + 27 u[70] + 95 u[71] + 79 u[72] + 60 u[73] + 17 u[74]
   + 46 u[75] + 68 u[76] + 36 u[77] + 70 u[78] + 100 u[79] + 31 u[80]
   + 43 u[81] + 48 u[82] + 75 u[83] + 23 u[84] + 19 u[85] + 41 u[86]
   + 73 u[87] + 83 u[88] + 76 u[89] + 90 u[90] + 50 u[91] + 50 u[92]
   + 93 u[93] + 17 u[94] + 50 u[95] + 50 u[96] + 62 u[97] + 21 u[98]
   + 61 u[99] + 50 u[100] + 49 u[101] + 47 u[102] + 69 u[103] + 46 u[104]
   + 31 u[105] + 4 u[106] + 84 u[107] + 4 u[108] + 66 u[109] + 92 u[110]
   + 16 u[111] + 34 u[112] + 6 u[113] + 94 u[114] + 84 u[115] + 56 u[116]
   + 22 u[117] + 58 u[118] + 6 u[119] <= 24548
 mccormick1[0]: - u[0] + r[0] <= 0
 mccormick1[1]: - u[1] + r[1] <= 0
 mccormick1[2]: - u[2] + r[2] <= 0
 mccormick1[3]: - u[3] + r[3] <= 0
 mccormick1[4]: - u[4] + r[4] <= 0
 mccormick1[5]: - u[5] + r[5] <= 0
 mccormick1[6]: - u[6] + r[6] <= 0
 mccormick1[7]: - u[7] + r[7] <= 0
 mccormick1[8]: - u[8] + r[8] <= 0
 mccormick1[9]: - u[9] + r[9] <= 0
 mccormick1[10]: - u[10] + r[10] <= 0
 mccormick1[11]: - u[11] + r[11] <= 0
 mccormick1[12]: - u[12] + r[12] <= 0
 mccormick1[13]: - u[13] + r[13] <= 0
 mccormick1[14]: - u[14] + r[14] <= 0
 mccormick1[15]: - u[15] + r[15] <= 0
 mccormick1[16]: - u[16] + r[16] <= 0
 mccormick1[17]: - u[17] + r[17] <= 0
 mccormick1[18]: - u[18] + r[18] <= 0
 mccormick1[19]: - u[19] + r[19] <= 0
 mccormick1[20]: - u[20] + r[20] <= 0
 mccormick1[21]: - u[21] + r[21] <= 0
 mccormick1[22]: - u[22] + r[22] <= 0
 mccormick1[23]: - u[23] + r[23] <= 0
 mccormick1[24]: - u[24] + r[24] <= 0
 mccormick1[25]: - u[25] + r[25] <= 0
 mccormick1[26]: - u[26] + r[26] <= 0
 mccormick1[27]: - u[27] + r[27] <= 0
 mccormick1[28]: - u[28] + r[28] <= 0
 mccormick1[29]: - u[29] + r[29] <= 0
 mccormick1[30]: - u[30] + r[30] <= 0
 mccormick1[31]: - u[31] + r[31] <= 0
 mccormick1[32]: - u[32] + r[32] <= 0
 mccormick1[33]: - u[33] + r[33] <= 0
 mccormick1[34]: - u[34] + r[34] <= 0
 mccormick1[35]: - u[35] + r[35] <= 0
 mccormick1[36]: - u[36] + r[36] <= 0
 mccormick1[37]: - u[37] + r[37] <= 0
 mccormick1[38]: - u[38] + r[38] <= 0
 mccormick1[39]: - u[39] + r[39] <= 0
 mccormick1[40]: - u[40] + r[40] <= 0
 mccormick1[41]: - u[41] + r[41] <= 0
 mccormick1[42]: - u[42] + r[42] <= 0
 mccormick1[43]: - u[43] + r[43] <= 0
 mccormick1[44]: - u[44] + r[44] <= 0
 mccormick1[45]: - u[45] + r[45] <= 0
 mccormick1[46]: - u[46] + r[46] <= 0
 mccormick1[47]: - u[47] + r[47] <= 0
 mccormick1[48]: - u[48] + r[48] <= 0
 mccormick1[49]: - u[49] + r[49] <= 0
 mccormick1[50]: - u[50] + r[50] <= 0
 mccormick1[51]: - u[51] + r[51] <= 0
 mccormick1[52]: - u[52] + r[52] <= 0
 mccormick1[53]: - u[53] + r[53] <= 0
 mccormick1[54]: - u[54] + r[54] <= 0
 mccormick1[55]: - u[55] + r[55] <= 0
 mccormick1[56]: - u[56] + r[56] <= 0
 mccormick1[57]: - u[57] + r[57] <= 0
 mccormick1[58]: - u[58] + r[58] <= 0
 mccormick1[59]: - u[59] + r[59] <= 0
 mccormick1[60]: - u[60] + r[60] <= 0
 mccormick1[61]: - u[61] + r[61] <= 0
 mccormick1[62]: - u[62] + r[62] <= 0
 mccormick1[63]: - u[63] + r[63] <= 0
 mccormick1[64]: - u[64] + r[64] <= 0
 mccormick1[65]: - u[65] + r[65] <= 0
 mccormick1[66]: - u[66] + r[66] <= 0
 mccormick1[67]: - u[67] + r[67] <= 0
 mccormick1[68]: - u[68] + r[68] <= 0
 mccormick1[69]: - u[69] + r[69] <= 0
 mccormick1[70]: - u[70] + r[70] <= 0
 mccormick1[71]: - u[71] + r[71] <= 0
 mccormick1[72]: - u[72] + r[72] <= 0
 mccormick1[73]: - u[73] + r[73] <= 0
 mccormick1[74]: - u[74] + r[74] <= 0
 mccormick1[75]: - u[75] + r[75] <= 0
 mccormick1[76]: - u[76] + r[76] <= 0
 mccormick1[77]: - u[77] + r[77] <= 0
 mccormick1[78]: - u[78] + r[78] <= 0
 mccormick1[79]: - u[79] + r[79] <= 0
 mccormick1[80]: - u[80] + r[80] <= 0
 mccormick1[81]: - u[81] + r[81] <= 0
 mccormick1[82]: - u[82] + r[82] <= 0
 mccormick1[83]: - u[83] + r[83] <= 0
 mccormick1[84]: - u[84] + r[84] <= 0
 mccormick1[85]: - u[85] + r[85] <= 0
 mccormick1[86]: - u[86] + r[86] <= 0
 mccormick1[87]: - u[87] + r[87] <= 0
 mccormick1[88]: - u[88] + r[88] <= 0
 mccormick1[89]: - u[89] + r[89] <= 0
 mccormick1[90]: - u[90] + r[90] <= 0
 mccormick1[91]: - u[91] + r[91] <= 0
 mccormick1[92]: - u[92] + r[92] <= 0
 mccormick1[93]: - u[93] + r[93] <= 0
 mccormick1[94]: - u[94] + r[94] <= 0
 mccormick1[95]: - u[95] + r[95] <= 0
 mccormick1[96]: - u[96] + r[96] <= 0
 mccormick1[97]: - u[97] + r[97] <= 0
 mccormick1[98]: - u[98] + r[98] <= 0
 mccormick1[99]: - u[99] + r[99] <= 0
 mccormick1[100]: - u[100] + r[100] <= 0
 mccormick1[101]: - u[101] + r[101] <= 0
 mccormick1[102]: - u[102] + r[102] <= 0
 mccormick1[103]: - u[103] + r[103] <= 0
 mccormick1[104]: - u[104] + r[104] <= 0
 mccormick1[105]: - u[105] + r[105] <= 0
 mccormick1[106]: - u[106] + r[106] <= 0
 mccormick1[107]: - u[107] + r[107] <= 0
 mccormick1[108]: - u[108] + r[108] <= 0
 mccormick1[109]: - u[109] + r[109] <= 0
 mccormick1[110]: - u[110] + r[110] <= 0
 mccormick1[111]: - u[111] + r[111] <= 0
 mccormick1[112]: - u[112] + r[112] <= 0
 mccormick1[113]: - u[113] + r[113] <= 0
 mccormick1[114]: - u[114] + r[114] <= 0
 mccormick1[115]: - u[115] + r[115] <= 0
 mccormick1[116]: - u[116] + r[116] <= 0
 mccormick1[117]: - u[117] + r[117] <= 0
 mccormick1[118]: - u[118] + r[118] <= 0
 mccormick1[119]: - u[119] + r[119] <= 0
 mccormick2[0]: - x[0] + r[0] <= 0
 mccormick2[1]: - x[1] + r[1] <= 0
 mccormick2[2]: - x[2] + r[2] <= 0
 mccormick2[3]: - x[3] + r[3] <= 0
 mccormick2[4]: - x[4] + r[4] <= 0
 mccormick2[5]: - x[5] + r[5] <= 0
 mccormick2[6]: - x[6] + r[6] <= 0
 mccormick2[7]: - x[7] + r[7] <= 0
 mccormick2[8]: - x[8] + r[8] <= 0
 mccormick2[9]: - x[9] + r[9] <= 0
 mccormick2[10]: - x[10] + r[10] <= 0
 mccormick2[11]: - x[11] + r[11] <= 0
 mccormick2[12]: - x[12] + r[12] <= 0
 mccormick2[13]: - x[13] + r[13] <= 0
 mccormick2[14]: - x[14] + r[14] <= 0
 mccormick2[15]: - x[15] + r[15] <= 0
 mccormick2[16]: - x[16] + r[16] <= 0
 mccormick2[17]: - x[17] + r[17] <= 0
 mccormick2[18]: - x[18] + r[18] <= 0
 mccormick2[19]: - x[19] + r[19] <= 0
 mccormick2[20]: - x[20] + r[20] <= 0
 mccormick2[21]: - x[21] + r[21] <= 0
 mccormick2[22]: - x[22] + r[22] <= 0
 mccormick2[23]: - x[23] + r[23] <= 0
 mccormick2[24]: - x[24] + r[24] <= 0
 mccormick2[25]: - x[25] + r[25] <= 0
 mccormick2[26]: - x[26] + r[26] <= 0
 mccormick2[27]: - x[27] + r[27] <= 0
 mccormick2[28]: - x[28] + r[28] <= 0
 mccormick2[29]: - x[29] + r[29] <= 0
 mccormick2[30]: - x[30] + r[30] <= 0
 mccormick2[31]: - x[31] + r[31] <= 0
 mccormick2[32]: - x[32] + r[32] <= 0
 mccormick2[33]: - x[33] + r[33] <= 0
 mccormick2[34]: - x[34] + r[34] <= 0
 mccormick2[35]: - x[35] + r[35] <= 0
 mccormick2[36]: - x[36] + r[36] <= 0
 mccormick2[37]: - x[37] + r[37] <= 0
 mccormick2[38]: - x[38] + r[38] <= 0
 mccormick2[39]: - x[39] + r[39] <= 0
 mccormick2[40]: - x[40] + r[40] <= 0
 mccormick2[41]: - x[41] + r[41] <= 0
 mccormick2[42]: - x[42] + r[42] <= 0
 mccormick2[43]: - x[43] + r[43] <= 0
 mccormick2[44]: - x[44] + r[44] <= 0
 mccormick2[45]: - x[45] + r[45] <= 0
 mccormick2[46]: - x[46] + r[46] <= 0
 mccormick2[47]: - x[47] + r[47] <= 0
 mccormick2[48]: - x[48] + r[48] <= 0
 mccormick2[49]: - x[49] + r[49] <= 0
 mccormick2[50]: - x[50] + r[50] <= 0
 mccormick2[51]: - x[51] + r[51] <= 0
 mccormick2[52]: - x[52] + r[52] <= 0
 mccormick2[53]: - x[53] + r[53] <= 0
 mccormick2[54]: - x[54] + r[54] <= 0
 mccormick2[55]: - x[55] + r[55] <= 0
 mccormick2[56]: - x[56] + r[56] <= 0
 mccormick2[57]: - x[57] + r[57] <= 0
 mccormick2[58]: - x[58] + r[58] <= 0
 mccormick2[59]: - x[59] + r[59] <= 0
 mccormick2[60]: - x[60] + r[60] <= 0
 mccormick2[61]: - x[61] + r[61] <= 0
 mccormick2[62]: - x[62] + r[62] <= 0
 mccormick2[63]: - x[63] + r[63] <= 0
 mccormick2[64]: - x[64] + r[64] <= 0
 mccormick2[65]: - x[65] + r[65] <= 0
 mccormick2[66]: - x[66] + r[66] <= 0
 mccormick2[67]: - x[67] + r[67] <= 0
 mccormick2[68]: - x[68] + r[68] <= 0
 mccormick2[69]: - x[69] + r[69] <= 0
 mccormick2[70]: - x[70] + r[70] <= 0
 mccormick2[71]: - x[71] + r[71] <= 0
 mccormick2[72]: - x[72] + r[72] <= 0
 mccormick2[73]: - x[73] + r[73] <= 0
 mccormick2[74]: - x[74] + r[74] <= 0
 mccormick2[75]: - x[75] + r[75] <= 0
 mccormick2[76]: - x[76] + r[76] <= 0
 mccormick2[77]: - x[77] + r[77] <= 0
 mccormick2[78]: - x[78] + r[78] <= 0
 mccormick2[79]: - x[79] + r[79] <= 0
 mccormick2[80]: - x[80] + r[80] <= 0
 mccormick2[81]: - x[81] + r[81] <= 0
 mccormick2[82]: - x[82] + r[82] <= 0
 mccormick2[83]: - x[83] + r[83] <= 0
 mccormick2[84]: - x[84] + r[84] <= 0
 mccormick2[85]: - x[85] + r[85] <= 0
 mccormick2[86]: - x[86] + r[86] <= 0
 mccormick2[87]: - x[87] + r[87] <= 0
 mccormick2[88]: - x[88] + r[88] <= 0
 mccormick2[89]: - x[89] + r[89] <= 0
 mccormick2[90]: - x[90] + r[90] <= 0
 mccormick2[91]: - x[91] + r[91] <= 0
 mccormick2[92]: - x[92] + r[92] <= 0
 mccormick2[93]: - x[93] + r[93] <= 0
 mccormick2[94]: - x[94] + r[94] <= 0
 mccormick2[95]: - x[95] + r[95] <= 0
 mccormick2[96]: - x[96] + r[96] <= 0
 mccormick2[97]: - x[97] + r[97] <= 0
 mccormick2[98]: - x[98] + r[98] <= 0
 mccormick2[99]: - x[99] + r[99] <= 0
 mccormick2[100]: - x[100] + r[100] <= 0
 mccormick2[101]: - x[101] + r[101] <= 0
 mccormick2[102]: - x[102] + r[102] <= 0
 mccormick2[103]: - x[103] + r[103] <= 0
 mccormick2[104]: - x[104] + r[104] <= 0
 mccormick2[105]: - x[105] + r[105] <= 0
 mccormick2[106]: - x[106] + r[106] <= 0
 mccormick2[107]: - x[107] + r[107] <= 0
 mccormick2[108]: - x[108] + r[108] <= 0
 mccormick2[109]: - x[109] + r[109] <= 0
 mccormick2[110]: - x[110] + r[110] <= 0
 mccormick2[111]: - x[111] + r[111] <= 0
 mccormick2[112]: - x[112] + r[112] <= 0
 mccormick2[113]: - x[113] + r[113] <= 0
 mccormick2[114]: - x[114] + r[114] <= 0
 mccormick2[115]: - x[115] + r[115] <= 0
 mccormick2[116]: - x[116] + r[116] <= 0
 mccormick2[117]: - x[117] + r[117] <= 0
 mccormick2[118]: - x[118] + r[118] <= 0
 mccormick2[119]: - x[119] + r[119] <= 0
 mccormick3[0]: x[0] + u[0] - r[0] <= 1
 mccormick3[1]: x[1] + u[1] - r[1] <= 1
 mccormick3[2]: x[2] + u[2] - r[2] <= 1
 mccormick3[3]: x[3] + u[3] - r[3] <= 1
 mccormick3[4]: x[4] + u[4] - r[4] <= 1
 mccormick3[5]: x[5] + u[5] - r[5] <= 1
 mccormick3[6]: x[6] + u[6] - r[6] <= 1
 mccormick3[7]: x[7] + u[7] - r[7] <= 1
 mccormick3[8]: x[8] + u[8] - r[8] <= 1
 mccormick3[9]: x[9] + u[9] - r[9] <= 1
 mccormick3[10]: x[10] + u[10] - r[10] <= 1
 mccormick3[11]: x[11] + u[11] - r[11] <= 1
 mccormick3[12]: x[12] + u[12] - r[12] <= 1
 mccormick3[13]: x[13] + u[13] - r[13] <= 1
 mccormick3[14]: x[14] + u[14] - r[14] <= 1
 mccormick3[15]: x[15] + u[15] - r[15] <= 1
 mccormick3[16]: x[16] + u[16] - r[16] <= 1
 mccormick3[17]: x[17] + u[17] - r[17] <= 1
 mccormick3[18]: x[18] + u[18] - r[18] <= 1
 mccormick3[19]: x[19] + u[19] - r[19] <= 1
 mccormick3[20]: x[20] + u[20] - r[20] <= 1
 mccormick3[21]: x[21] + u[21] - r[21] <= 1
 mccormick3[22]: x[22] + u[22] - r[22] <= 1
 mccormick3[23]: x[23] + u[23] - r[23] <= 1
 mccormick3[24]: x[24] + u[24] - r[24] <= 1
 mccormick3[25]: x[25] + u[25] - r[25] <= 1
 mccormick3[26]: x[26] + u[26] - r[26] <= 1
 mccormick3[27]: x[27] + u[27] - r[27] <= 1
 mccormick3[28]: x[28] + u[28] - r[28] <= 1
 mccormick3[29]: x[29] + u[29] - r[29] <= 1
 mccormick3[30]: x[30] + u[30] - r[30] <= 1
 mccormick3[31]: x[31] + u[31] - r[31] <= 1
 mccormick3[32]: x[32] + u[32] - r[32] <= 1
 mccormick3[33]: x[33] + u[33] - r[33] <= 1
 mccormick3[34]: x[34] + u[34] - r[34] <= 1
 mccormick3[35]: x[35] + u[35] - r[35] <= 1
 mccormick3[36]: x[36] + u[36] - r[36] <= 1
 mccormick3[37]: x[37] + u[37] - r[37] <= 1
 mccormick3[38]: x[38] + u[38] - r[38] <= 1
 mccormick3[39]: x[39] + u[39] - r[39] <= 1
 mccormick3[40]: x[40] + u[40] - r[40] <= 1
 mccormick3[41]: x[41] + u[41] - r[41] <= 1
 mccormick3[42]: x[42] + u[42] - r[42] <= 1
 mccormick3[43]: x[43] + u[43] - r[43] <= 1
 mccormick3[44]: x[44] + u[44] - r[44] <= 1
 mccormick3[45]: x[45] + u[45] - r[45] <= 1
 mccormick3[46]: x[46] + u[46] - r[46] <= 1
 mccormick3[47]: x[47] + u[47] - r[47] <= 1
 mccormick3[48]: x[48] + u[48] - r[48] <= 1
 mccormick3[49]: x[49] + u[49] - r[49] <= 1
 mccormick3[50]: x[50] + u[50] - r[50] <= 1
 mccormick3[51]: x[51] + u[51] - r[51] <= 1
 mccormick3[52]: x[52] + u[52] - r[52] <= 1
 mccormick3[53]: x[53] + u[53] - r[53] <= 1
 mccormick3[54]: x[54] + u[54] - r[54] <= 1
 mccormick3[55]: x[55] + u[55] - r[55] <= 1
 mccormick3[56]: x[56] + u[56] - r[56] <= 1
 mccormick3[57]: x[57] + u[57] - r[57] <= 1
 mccormick3[58]: x[58] + u[58] - r[58] <= 1
 mccormick3[59]: x[59] + u[59] - r[59] <= 1
 mccormick3[60]: x[60] + u[60] - r[60] <= 1
 mccormick3[61]: x[61] + u[61] - r[61] <= 1
 mccormick3[62]: x[62] + u[62] - r[62] <= 1
 mccormick3[63]: x[63] + u[63] - r[63] <= 1
 mccormick3[64]: x[64] + u[64] - r[64] <= 1
 mccormick3[65]: x[65] + u[65] - r[65] <= 1
 mccormick3[66]: x[66] + u[66] - r[66] <= 1
 mccormick3[67]: x[67] + u[67] - r[67] <= 1
 mccormick3[68]: x[68] + u[68] - r[68] <= 1
 mccormick3[69]: x[69] + u[69] - r[69] <= 1
 mccormick3[70]: x[70] + u[70] - r[70] <= 1
 mccormick3[71]: x[71] + u[71] - r[71] <= 1
 mccormick3[72]: x[72] + u[72] - r[72] <= 1
 mccormick3[73]: x[73] + u[73] - r[73] <= 1
 mccormick3[74]: x[74] + u[74] - r[74] <= 1
 mccormick3[75]: x[75] + u[75] - r[75] <= 1
 mccormick3[76]: x[76] + u[76] - r[76] <= 1
 mccormick3[77]: x[77] + u[77] - r[77] <= 1
 mccormick3[78]: x[78] + u[78] - r[78] <= 1
 mccormick3[79]: x[79] + u[79] - r[79] <= 1
 mccormick3[80]: x[80] + u[80] - r[80] <= 1
 mccormick3[81]: x[81] + u[81] - r[81] <= 1
 mccormick3[82]: x[82] + u[82] - r[82] <= 1
 mccormick3[83]: x[83] + u[83] - r[83] <= 1
 mccormick3[84]: x[84] + u[84] - r[84] <= 1
 mccormick3[85]: x[85] + u[85] - r[85] <= 1
 mccormick3[86]: x[86] + u[86] - r[86] <= 1
 mccormick3[87]: x[87] + u[87] - r[87] <= 1
 mccormick3[88]: x[88] + u[88] - r[88] <= 1
 mccormick3[89]: x[89] + u[89] - r[89] <= 1
 mccormick3[90]: x[90] + u[90] - r[90] <= 1
 mccormick3[91]: x[91] + u[91] - r[91] <= 1
 mccormick3[92]: x[92] + u[92] - r[92] <= 1
 mccormick3[93]: x[93] + u[93] - r[93] <= 1
 mccormick3[94]: x[94] + u[94] - r[94] <= 1
 mccormick3[95]: x[95] + u[95] - r[95] <= 1
 mccormick3[96]: x[96] + u[96] - r[96] <= 1
 mccormick3[97]: x[97] + u[97] - r[97] <= 1
 mccormick3[98]: x[98] + u[98] - r[98] <= 1
 mccormick3[99]: x[99] + u[99] - r[99] <= 1
 mccormick3[100]: x[100] + u[100] - r[100] <= 1
 mccormick3[101]: x[101] + u[101] - r[101] <= 1
 mccormick3[102]: x[102] + u[102] - r[102] <= 1
 mccormick3[103]: x[103] + u[103] - r[103] <= 1
 mccormick3[104]: x[104] + u[104] - r[104] <= 1
 mccormick3[105]: x[105] + u[105] - r[105] <= 1
 mccormick3[106]: x[106] + u[106] - r[106] <= 1
 mccormick3[107]: x[107] + u[107] - r[107] <= 1
 mccormick3[108]: x[108] + u[108] - r[108] <= 1
 mccormick3[109]: x[109] + u[109] - r[109] <= 1
 mccormick3[110]: x[110] + u[110] - r[110] <= 1
 mccormick3[111]: x[111] + u[111] - r[111] <= 1
 mccormick3[112]: x[112] + u[112] - r[112] <= 1
 mccormick3[113]: x[113] + u[113] - r[113] <= 1
 mccormick3[114]: x[114] + u[114] - r[114] <= 1
 mccormick3[115]: x[115] + u[115] - r[115] <= 1
 mccormick3[116]: x[116] + u[116] - r[116] <= 1
 mccormick3[117]: x[117] + u[117] - r[117] <= 1
 mccormick3[118]: x[118] + u[118] - r[118] <= 1
 mccormick3[119]: x[119] + u[119] - r[119] <= 1
Bounds
Binaries
 x[0] x[1] x[2] x[3] x[4] x[5] x[6] x[7] x[8] x[9] x[10] x[11] x[12] x[13]
 x[14] x[15] x[16] x[17] x[18] x[19] x[20] x[21] x[22] x[23] x[24] x[25]
 x[26] x[27] x[28] x[29] x[30] x[31] x[32] x[33] x[34] x[35] x[36] x[37]
 x[38] x[39] x[40] x[41] x[42] x[43] x[44] x[45] x[46] x[47] x[48] x[49]
 x[50] x[51] x[52] x[53] x[54] x[55] x[56] x[57] x[58] x[59] x[60] x[61]
 x[62] x[63] x[64] x[65] x[66] x[67] x[68] x[69] x[70] x[71] x[72] x[73]
 x[74] x[75] x[76] x[77] x[78] x[79] x[80] x[81] x[82] x[83] x[84] x[85]
 x[86] x[87] x[88] x[89] x[90] x[91] x[92] x[93] x[94] x[95] x[96] x[97]
 x[98] x[99] x[100] x[101] x[102] x[103] x[104] x[105] x[106] x[107] x[108]
 x[109] x[110] x[111] x[112] x[113] x[114] x[115] x[116] x[117] x[118]
 x[119] u[0] u[1] u[2] u[3] u[4] u[5] u[6] u[7] u[8] u[9] u[10] u[11] u[12]
 u[13] u[14] u[15] u[16] u[17] u[18] u[19] u[20] u[21] u[22] u[23] u[24]
 u[25] u[26] u[27] u[28] u[29] u[30] u[31] u[32] u[33] u[34] u[35] u[36]
 u[37] u[38] u[39] u[40] u[41] u[42] u[43] u[44] u[45] u[46] u[47] u[48]
 u[49] u[50] u[51] u[52] u[53] u[54] u[55] u[56] u[57] u[58] u[59] u[60]
 u[61] u[62] u[63] u[64] u[65] u[66] u[67] u[68] u[69] u[70] u[71] u[72]
 u[73] u[74] u[75] u[76] u[77] u[78] u[79] u[80] u[81] u[82] u[83] u[84]
 u[85] u[86] u[87] u[88] u[89] u[90] u[91] u[92] u[93] u[94] u[95] u[96]
 u[97] u[98] u[99] u[100] u[101] u[102] u[103] u[104] u[105] u[106] u[107]
 u[108] u[109] u[110] u[111] u[112] u[113] u[114] u[115] u[116] u[117]
 u[118] u[119] r[0] r[1] r[2] r[3] r[4] r[5] r[6] r[7] r[8] r[9] r[10]
 r[11] r[12] r[13] r[14] r[15] r[16] r[17] r[18] r[19] r[20] r[21] r[22]
 r[23] r[24] r[25] r[26] r[27] r[28] r[29] r[30] r[31] r[32] r[33] r[34]
 r[35] r[36] r[37] r[38] r[39] r[40] r[41] r[42] r[43] r[44] r[45] r[46]
 r[47] r[48] r[49] r[50] r[51] r[52] r[53] r[54] r[55] r[56] r[57] r[58]
 r[59] r[60] r[61] r[62] r[63] r[64] r[65] r[66] r[67] r[68] r[69] r[70]
 r[71] r[72] r[73] r[74] r[75] r[76] r[77] r[78] r[79] r[80] r[81] r[82]
 r[83] r[84] r[85] r[86] r[87] r[88] r[89] r[90] r[91] r[92] r[93] r[94]
 r[95] r[96] r[97] r[98] r[99] r[100] r[101] r[102] r[103] r[104] r[105]
 r[106] r[107] r[108] r[109] r[110] r[111] r[112] r[113] r[114] r[115]
 r[116] r[117] r[118] r[119]
End
