instances/knapsack/discrete_knapsack_uncertainty/knapsack_120_2.kp
78477
120
583

87 8.7 100
72 7.2 20
94 9.4 78
47 4.7 82
56 5.6 99
13 1.3 3
37 3.7 55
23 2.3 49
1 0.1 88
2 0.2 68
99 9.9 9
91 9.1 93
80 8.0 49
28 2.8 52
12 1.2 85
44 4.4 2
13 1.3 44
16 1.6 64
21 2.1 72
42 4.2 23
77 7.7 31
43 4.3 29
40 4.0 66
38 3.8 50
80 8.0 39
32 3.2 24
62 6.2 10
15 1.5 9
97 9.7 40
91 9.1 50
21 2.1 79
3 0.3 14
59 5.9 54
49 4.9 65
96 9.6 65
37 3.7 15
68 6.8 19
28 2.8 65
52 5.2 28
78 7.8 61
79 7.9 90
37 3.7 75
50 5.0 39
29 2.9 45
11 1.1 92
22 2.2 89
53 5.3 46
9 0.9 34
35 3.5 2
72 7.2 43
90 9.0 77
40 4.0 28
65 6.5 5
92 9.2 3
32 3.2 26
75 7.5 16
21 2.1 76
94 9.4 54
56 5.6 42
62 6.2 13
28 2.8 46
34 3.4 28
47 4.7 35
78 7.8 31
71 7.1 52
72 7.2 39
4 0.4 67
78 7.8 75
84 8.4 18
73 7.3 95
21 2.1 43
93 9.3 17
30 3.0 15
55 5.5 83
71 7.1 76
72 7.2 68
54 5.4 92
79 7.9 83
12 1.2 78
94 9.4 97
77 7.7 33
33 3.3 68
62 6.2 27
5 0.5 72
1 0.1 47
37 3.7 58
75 7.5 36
24 2.4 9
54 5.4 38
71 7.1 96
72 7.2 60
84 8.4 31
32 3.2 3
7 0.7 98
56 5.6 98
57 5.7 8
61 6.1 83
16 1.6 6
32 3.2 26
52 5.2 58
41 4.1 50
60 6.0 23
50 5.0 24
44 4.4 7
1 0.1 37
30 3.0 53
11 1.1 4
70 7.0 94
50 5.0 76
73 7.3 6
34 3.4 39
91 9.1 88
13 1.3 63
89 8.9 77
93 9.3 60
82 8.2 7
87 8.7 5
65 6.5 87
21 2.1 88
96 9.6 53

24548
553

[4.514504477827143 3.196663705039053 1.9019272716927382 0.7165992245594145 4.204840362922147 3.979848576731461 3.286981021328764 2.5695776132182075 2.0077794355610634 1.2889962004843796 2.7539322689527617 4.404218469652735 3.8272680660681986 2.324000242490853 2.370137196704734 3.9624728224284715 1.1479537180419972 2.0062995514813493 2.2372468764736766 3.7045738987372725 0.8680922551928553 1.630694814154529 0.25444467415815303 1.8996465063629213 3.781273085983236 3.7094256966176467 3.324383211650681 3.8387922157225405 0.4738473038202456 0.6994630566609743 3.3313658116945613 4.060834841179587 0.5012828695353208 4.23454959377207 4.435822579674578 0.18432336576489436 0.6075107162665654 4.005294555583254 2.856704853558319 1.3389104210800817 1.1888466978455328 0.21293018970413163 1.0559901104895117 1.4448179283440996 1.9497322390923806 3.0266228428401645 2.2880946316239963 3.529232660925843 4.536141590448928 0.04886175465485569 1.349695405055964 3.5737558713021764 3.3920518540042996 2.3993860117542662 4.371393379763646 3.642343015205476 1.124057888846716 1.0328985080022484 4.186242859987219 4.202495475686764 1.8395942034491821 0.8989112363708851 4.304173485785498 4.2120175901933665 2.9423438569108544 0.24012659677237766 0.3034582261741308 0.26136737117936015 1.9180897871210496 3.9065034144180886 0.6816473613767088 1.1783764864581434 1.8109456127498595 3.435083217983035 1.1375466650814474 3.131189739807406 1.2732164941561595 3.1783588791014217 3.4061838674979508 2.7907229547557324 2.957683814629944 1.8138821153236586 4.321219830409051 0.9136044051647855 3.032810815281707 3.076055276571416 1.086881454316996 1.7682028413595743 0.28204393778263986 2.400200390543931 1.3181268058980773 4.393922630203971 0.27954666430829134 1.0806992069755044 4.008907877736428 1.9088150405816822 1.8365096774948741 1.4424096107553515 3.1265983604006617 3.1725405616705733 4.439026782257206 0.2703576981234251 1.9812295465983623 3.284368561605301 0.423275111362995 0.38371559226448554 0.04162277599002549 4.179782071042866 3.6567481484803754 0.737176851952249 0.22089143567344965 1.0190987874936244 0.6385172175684924 2.004257629898124 2.5576228385980078 0.7126625967638032 2.972565507683508 0.8855283146453662 3.8599172454252892 3.4007325026440127]

[1 97 79 36 29 11 46 21 86 31 9 92 57 57 42 62 58 17 78 43 38 9 65 32 66 9 15 9 87 100 35 65 5 50 65 70 89 58 45 80 72 11 31 55 56 56 43 3 44 13 20 21 30 77 38 37 58 96 21 31 62 52 45 8 13 17 62 76 73 75 27 95 79 60 17 46 68 36 70 100 31 43 48 75 23 19 41 73 83 76 90 50 50 93 17 50 50 62 21 61 50 49 47 69 46 31 4 84 4 66 92 16 34 6 94 84 56 22 58 6]
